/*********************************************
 * OPL 12.6.0.0 Data
 * Author: Adrian Rodriguez Bazaga, Pau Rodriguez Esmerats
 * Creation Date: 21/11/2017 at 20:50:29
 *********************************************/

nNurses=112;
maxConsec=2;
maxPresence=7;
maxHours=5;
minHours=1;
demand= [26 19 36 37 19 36 37 19 22 14 2 4 3 4 4 4 2 1 2 0 29 56 28 44  ];
